63 61 60 59 58 57 81 80 79 78 77 88 87 90 85 86 82 83 84 51 50 52 54 53 56 55 49 48 47 46 45 555 91 92 93 89 94 97 95 96 98 99 100 101 551 550 559 558 552 553 554 556 557 40 41 44 43 42 39 38 37 36 35 34 33 32 30 29 28 27 26 25 24 21 31 22 23 12 13 14 15 16 11 10 9 7 8 17 18 19 20 568 569 570 571 573 572 6 5 0 4 1 2 3 455 456 457 458 459 460 461 462 463 497 496 464 465 466 467 468 469 470 471 472 473 474 567 566 565 563 562 561 560 564 549 548 478 477 479 480 476 475 482 481 483 485 484 536 537 539 538 540 176 177 178 187 188 186 182 179 180 181 183 185 184 193 219 218 220 221 222 223 224 225 226 191 192 190 189 227 228 229 230 231 233 232 234 235 236 528 529 530 531 532 533 489 488 534 535 487 486 490 491 492 493 524 494 495 518 519 498 502 503 504 505 308 309 310 311 312 313 316 314 315 375 376 377 378 379 380 381 445 444 443 446 447 448 449 442 439 440 441 450 451 501 500 499 452 453 454 438 437 436 435 434 433 432 430 431 429 428 427 426 420 421 422 423 424 425 382 386 387 388 389 390 392 391 393 394 397 398 399 407 408 385 383 384 409 405 406 404 400 403 402 401 360 359 358 357 354 352 353 355 356 412 411 410 418 419 417 413 414 416 415 351 350 349 348 347 362 361 363 364 346 345 365 366 367 368 369 370 372 371 396 395 374 373 322 323 324 325 326 327 328 329 342 343 344 341 340 330 331 332 333 339 338 337 336 335 334 290 289 288 283 284 285 286 287 280 281 282 279 278 277 276 275 274 273 292 291 294 295 296 293 270 269 272 271 268 267 266 264 263 262 261 260 259 258 299 265 298 297 321 320 319 317 318 305 306 304 307 303 301 302 508 507 506 516 515 514 517 520 521 523 525 526 522 527 512 513 511 510 509 237 238 239 240 243 242 241 300 257 256 255 253 254 252 251 250 249 248 244 245 247 246 216 217 215 214 213 212 211 210 209 194 195 196 197 205 206 207 208 198 199 200 201 202 204 203 165 164 166 167 163 162 168 169 171 170 172 175 174 173 108 109 111 110 107 542 541 543 544 545 546 547 102 103 104 105 106 118 119 120 121 122 123 117 124 125 126 127 128 116 115 114 112 113 161 160 159 156 155 154 153 157 158 145 144 143 142 146 147 148 152 149 150 151 141 140 136 135 134 133 132 131 130 129 137 139 138 69 70 68 67 66 65 71 72 73 74 75 76 64 62